unsat
(:binary-propagations  19
 :conflicts            1
 :final-checks         1
 :max-generation       1
 :max-memory           23.74
 :memory               21.01
 :mk-bool-var          510
 :mk-clause            141
 :mk-clause-binary     644
 :num-allocs           9410667
 :num-checks           1
 :propagations         19
 :quant-instantiations 111
 :restarts             1
 :rlimit-count         133230
 :time                 0.03)
